output ["objective = "++format(objective)++";\n","Beamtime = "++format(Beamtime)++";\n","K = "++format(K)++";\n","N = "++format(N)++";\n","Q = array3d("++format(Rows)++", "++format(Columns)++", "++format(BTimes)++", "++format(Q)++");\n"];
int: m = 9;
int: n = 9;
set of int: Rows = 1..9;
set of int: Columns = 1..9;
set of int: BTimes = 1..11;
int: Beamtime;
int: K;
array [BTimes] of int: N;
array [Rows,Columns,BTimes] of int: Q;
int: objective = (m*n+1)*Beamtime+K;
